letting n =  10
letting blocks =  [[1, 2], [2, 7], [3, 7], [3, 8], [4, 1], [4, 7], [5, 2], [5, 8], [5, 9], [6, 3], [6, 5], [7, 3], [7, 5], [7, 6], [8, 2], [8, 4], [8, 9], [9, 5], [9, 6], [9, 7], [9, 10], [10, 9]]
